190 751
714 520
419 609
340 720
961 375
265 322
458 33
4 231
588 200
147 244
797 674
660 324
379 546
624 112
345 415
492 35
821 967
466 322
321 154
763 628
705 314
658 983
50 183
306 805
102 526
535 950
373 868
150 455
722 3
744 342
